Route #1: 3 86 93 103 89 64 66 75 91
Route #2: 15 90 44 52 88
Route #3: 59 18 113 27 63 20 50
Route #4: 78 119 53 9 82 1
Route #5: 23 67 124 54 19 123 70 74 127
Route #6: 39 7 6 5 14 47
Route #7: 24 125 117 106 80 22 43
Route #8: 84 30 45 31 28
Route #9: 25 62 29 87 68 115
Route #10: 77 56 121 98 122 102 97 118 38
Route #11: 60 35 13 94 4 128 42 69 109
Route #12: 57 111 81 107 99 51 83
Route #13: 120 8 26 126 36
Route #14: 71 108 100 72 37
Route #15: 32 96 73 49 92 112
Route #16: 16 114 12 95 116 104 10 79 76 61 41 85 11
Route #17: 110 17 101 58 40 55 105 65
Route #18: 48 2 34 21 33 46
Cost 37186
